(set-info :source  loris-7.ddns.comp.nus.edu.sg/~project/hip/) 
;Variables declarations
(declare-fun Anon_9551 () Int)
(declare-fun nl_9550 () Int)
(declare-fun bhl_9552 () Int)
(declare-fun bhr_9640 () Int)
(declare-fun nr_9639 () Int)
(declare-fun nb () Int)
(declare-fun bhl_9637 () Int)
(declare-fun nl_9636 () Int)
(declare-fun na () Int)
(declare-fun r_9638 () Int)
(declare-fun l_9635 () Int)
(declare-fun v_9634 () Int)
(declare-fun res () Int)
(declare-fun v_node_203_4082_primed () Int)
(declare-fun v_int_203_9533 () Int)
(declare-fun v_int_201_9531 () Int)
(declare-fun v_int_201_9530 () Int)
(declare-fun flted_195_9528 () Int)
(declare-fun flted_195_9529 () Int)
(declare-fun c () Int)
(declare-fun b_primed () Int)
(declare-fun b () Int)
(declare-fun a_primed () Int)
(declare-fun a () Int)
(declare-fun v_9548 () Int)
(declare-fun v_int_203_9532 () Int)
(declare-fun l_9549 () Int)
(declare-fun tmp_9534 () Int)
(declare-fun r_9553 () Int)
(declare-fun c_primed () Int)
(declare-fun nr_9554 () Int)
(declare-fun nc () Int)
(declare-fun Anon_9555 () Int)
(declare-fun flted_195_9527 () Int)
(declare-fun bhr_9556 () Int)
(declare-fun ha () Int)
;Relations declarations
;Axioms assertions
;Antecedent
(assert (= Anon_9551 1))
(assert (= nl_9550 (+ (+ nr_9639 1) nl_9636)))
(assert (= bhl_9637 bhl_9552))
(assert (= bhr_9640 bhl_9552))
(assert (= bhr_9640 bhl_9637))
(assert (= bhr_9640 ha))
(assert (= nr_9639 nb))
(assert (= bhl_9637 ha))
(assert (= nl_9636 na))
(assert (= r_9638 b_primed))
(assert (= l_9635 a_primed))
(assert (= v_9634 v_int_201_9530))
(assert (= res v_node_203_4082_primed))
(assert (= v_int_203_9533 0))
(assert (= v_int_203_9532 0))
(assert (= v_int_201_9531 1))
(assert (= v_int_201_9530 0))
(assert (= flted_195_9527 0))
(assert (= flted_195_9528 0))
(assert (= flted_195_9529 0))
(assert (= c_primed c))
(assert (= b_primed b))
(assert (= a_primed a))
(assert (= v_9548 v_int_203_9532))
(assert (= l_9549 tmp_9534))
(assert (= r_9553 c_primed))
(assert (= nr_9554 nc))
(assert (= Anon_9555 flted_195_9527))
(assert (= bhr_9556 ha))
;Negation of Consequence
(assert (not false))
(check-sat)